experiment/data/lkh-res/Vrp-Set-B-n39/Vrp-Set-B-n39-lkh/0.lkh1.vrp
NAME : 0
COMMENT : CVRP Instance
TYPE : CVRP
DIMENSION : 39
EDGE_WEIGHT_TYPE : EUC_2D
CAPACITY : 100
NODE_COORD_SECTION
1	3700	2100
2	7700	5700
3	9700	7900
4	3900	3300
5	4500	4700
6	8500	2300
7	700	100
8	1600	600
9	2100	1300
10	2100	700
11	1200	600
12	9200	2400
13	9200	3200
14	1000	800
15	1900	1500
16	8600	2400
17	10600	8400
18	4800	4800
19	800	200
20	1400	200
21	1400	200
22	9800	8200
23	10600	8000
24	9800	8600
25	9800	8200
26	8000	6200
27	8200	6200
28	5200	5200
29	4200	4200
30	2500	1100
31	10400	8600
32	4400	3800
33	7800	6400
34	9800	8000
35	1600	400
36	4600	4800
37	4400	4200
38	10000	8200
39	5200	5400
DEMAND_SECTION
1	0
2	14
3	16
4	18
5	20
6	1
7	12
8	13
9	18
10	9
11	15
12	8
13	10
14	7
15	18
16	14
17	1
18	15
19	7
20	25
21	2
22	3
23	4
24	16
25	15
26	23
27	11
28	21
29	10
30	12
31	9
32	7
33	8
34	4
35	23
36	8
37	6
38	2
39	15
DEPOT_SECTION
1
-1
EOF
